DATASET = "thpack6";
INSTANCE = "045";

WIDTH = 233;
HEIGHT = 220;
LENGTH = 587;

NO_OF_SHAPES = 15;
size = [|
  63,55,31 |
  120,43,23 |
  97,72,57 |
  77,76,42 |
  93,74,20 |
  65,63,43 |
  108,71,40 |
  79,36,21 |
  68,62,26 |
  68,50,40 |
  79,42,31 |
  76,56,38 |
  80,79,51 |
  115,69,29 |
  113,50,30 |
|];

verticality = [|
  0,1,1 |
  0,1,1 |
  1,1,1 |
  1,1,1 |
  0,0,1 |
  1,1,1 |
  0,1,1 |
  0,1,1 |
  0,0,1 |
  1,1,1 |
  0,1,1 |
  0,1,1 |
  1,1,1 |
  0,0,1 |
  0,1,1 |
|];

box_count = [
  9,
  10,
  4,
  15,
  17,
  12,
  10,
  4,
  12,
  9,
  7,
  8,
  17,
  12,
  11,
];
